0 2437
1 2173
2 2054
3 1918
4 1856
5 1770
6 1725
7 1676
8 1649
9 1619
10 1581
11 1565
12 1557
13 1512
14 1472
15 1463
16 1460
17 1460
18 1457
19 1457
20 1456
21 1438
22 1435
23 1415
24 1403
25 1389
26 1373
27 1373
28 1309
29 1309
30 1309
31 1306
32 1306
33 1306
34 1295
35 1295
36 1294
37 1294
38 1294
39 1294
40 1272
41 1272
42 1272
43 1272
44 1272
45 1213
46 1213
47 1211
48 1211
49 1211
50 1211
51 1200
52 1199
53 1199
54 1199
55 1199
56 1199
57 1199
58 1199
59 1199
60 1199
61 1199
62 1199
63 1199
64 1185
65 1185
66 1185
67 1185
68 1185
69 1170
70 1170
71 1170
72 1170
73 1170
74 1168
75 1168
76 1167
77 1167
78 1167
79 1167
80 1167
81 1167
82 1167
83 1167
84 1167
85 1167
86 1163
87 1163
88 1163
89 1163
90 1163
91 1163
92 1162
93 1162
94 1162
95 1162
96 1162
97 1162
98 1162
99 1162
100 1162
101 1162
102 1162
103 1162
104 1162
105 1152
106 1152
107 1126
108 1126
109 1126
110 1126
111 1126
112 1119
113 1119
114 1117
115 1117
116 1117
117 1117
118 1117
119 1088
120 1088
121 1088
122 1088
123 1088
124 1088
125 1084
126 1084
127 1082
128 1082
129 1076
130 1076
131 1076
132 1076
133 1076
134 1076
135 1076
136 1076
137 1076
138 1076
139 1076
140 1075
141 1075
142 1075
143 1075
144 1075
145 1075
146 1075
147 1075
148 1075
149 1075
150 1075
151 1075
152 1075
153 1075
154 1075
155 1075
156 1075
157 1075
158 1075
159 1075
160 1075
161 1075
162 1067
163 1067
164 1067
165 1067
166 1067
167 1067
168 1067
169 1067
170 1067
171 1067
172 1064
173 1064
174 1064
175 1064
176 1064
177 1064
178 1064
179 1064
180 1064
181 1064
182 1064
183 1064
184 1064
185 1064
186 1064
187 1064
188 1061
189 1061
190 1061
191 1061
192 1061
193 1061
194 1061
195 1061
196 1061
197 1061
198 1061
199 1061
200 1061
201 1061
202 1061
203 1061
204 1061
205 1061
206 1051
207 1051
208 1051
209 1051
210 1051
211 1051
212 1051
213 1051
214 1051
215 1051
216 1051
217 1051
218 1051
219 1051
220 1051
221 1051
222 1051
223 1051
224 1051
225 1051
226 1051
227 1051
228 1051
229 1051
230 1051
231 1051
232 1051
233 1051
234 1051
235 1051
236 1051
237 1051
238 1051
239 1051
240 1051
241 1051
242 1051
243 1051
244 1051
245 1051
246 1051
247 1051
248 1051
249 1051
250 1051
251 1051
252 1051
253 1051
254 1051
255 1051
256 1051
257 1051
258 1051
259 1051
260 1051
261 1051
262 1051
263 1051
264 1051
265 1051
266 1051
267 1051
268 1051
269 1051
270 1051
271 1051
272 1051
273 1051
274 1051
275 1051
276 1051
277 1051
278 1051
279 1051
280 1051
281 1051
282 1051
283 1051
284 1051
285 1051
286 1051
287 1051
288 1051
289 1051
290 1051
291 1051
292 1051
293 1051
294 1051
295 1051
296 1051
297 1051
298 1051
299 1051
300 1051
301 1051
302 1051
303 1051
304 1051
305 1051
306 1051
307 1051
308 1051
309 1051
310 1051
311 1051
312 1051
313 1051
314 1051
315 1051
316 1051
317 1051
318 1051
319 1051
320 1051
321 1051
322 1051
323 1051
324 1051
325 1051
326 1051
327 1051
328 1051
329 1051
330 1051
331 1051
332 1051
333 1051
334 1051
335 1051
336 1051
337 1051
338 1051
339 1051
340 1051
341 1051
342 1051
343 1051
344 1051
345 1051
346 1051
347 1051
348 1051
349 1051
350 1051
351 1051
352 1051
353 1051
354 1051
355 1051
356 1051
357 1051
358 1051
359 1051
360 1051
361 1051
362 1051
363 1051
364 1051
365 1051
366 1051
367 1051
368 1051
369 1051
370 1051
371 1051
372 1051
373 1051
374 1051
375 1051
376 1051
377 1051
378 1051
379 1051
380 1051
381 1051
382 1051
383 1051
384 1051
385 1051
386 1051
387 1051
388 1051
389 1051
390 1051
391 1051
392 1051
393 1051
394 1051
395 1051
396 1051
397 1051
398 1051
399 1051
400 1051
401 1051
402 1051
403 1051
404 1051
405 1051
406 1051
407 1051
408 1051
409 1051
410 1051
411 1051
412 1051
413 1051
414 1051
415 1051
416 1051
417 1051
418 1051
419 1051
420 1051
421 1051
422 1051
423 1051
424 1051
425 1051
426 1051
427 1051
428 1051
429 1051
430 1051
431 1051
432 1051
433 1051
434 1051
435 1051
436 1051
437 1051
438 1051
439 1051
440 1051
441 1051
442 1051
443 1051
444 1051
445 1051
446 1051
447 1051
448 1051
449 1051
450 1051
451 1051
452 1051
453 1051
454 1051
455 1051
456 1051
457 1051
458 1051
459 1051
460 1051
461 1051
462 1051
463 1051
464 1051
465 1051
466 1051
467 1051
468 1051
469 1051
470 1051
471 1051
472 1051
473 1051
474 1051
475 1051
476 1051
477 1051
478 1051
479 1051
480 1051
481 1051
482 1051
483 1051
484 1051
485 1051
486 1051
487 1051
488 1051
489 1051
490 1051
491 1051
492 1051
493 1051
494 1051
495 1051
496 1051
497 1051
498 1051
499 1051
500 1051
501 1051
502 1051
503 1051
504 1051
505 1051
506 1051
507 1051
508 1051
509 1051
510 1051
511 1051
512 1051
513 1051
514 1051
515 1051
516 1051
517 1051
518 1051
519 1051
520 1051
521 1051
522 1051
523 1051
524 1051
525 1051
526 1051
527 1051
528 1051
529 1051
530 1051
531 1051
532 1051
533 1051
534 1051
535 1051
536 1051
537 1051
538 1051
539 1051
540 1051
541 1051
542 1051
543 1051
544 1051
545 1051
546 1051
547 1051
548 1051
549 1051
550 1051
551 1051
552 1051
553 1051
554 1051
555 1051
556 1051
557 1051
558 1051
559 1051
560 1051
561 1051
562 1051
563 1051
564 1051
565 1051
566 1051
567 1051
568 1051
569 1051
570 1051
571 1051
572 1051
573 1051
574 1051
575 1051
576 1051
577 1051
578 1051
579 1051
580 1051
581 1051
582 1051
583 1051
584 1051
585 1051
586 1051
587 1051
588 1051
589 1051
590 1051
591 1051
592 1051
593 1051
594 1051
595 1051
596 1051
597 1051
598 1051
599 1051
600 1051
601 1051
602 1051
603 1051
604 1051
605 1051
606 1051
607 1051
608 1051
609 1051
610 1051
611 1051
612 1051
613 1051
614 1051
615 1051
616 1051
617 1051
618 1051
619 1051
620 1051
621 1051
622 1051
623 1051
624 1051
625 1051
626 1051
627 1051
628 1051
629 1051
630 1051
631 1051
632 1051
633 1051
634 1051
635 1051
636 1051
637 1051
638 1051
639 1051
640 1051
641 1051
642 1051
643 1051
644 1051
645 1051
646 1051
647 1051
648 1051
649 1051
650 1051
651 1051
652 1051
653 1051
654 1051
655 1051
656 1051
657 1051
658 1051
659 1051
660 1051
661 1051
662 1051
663 1051
664 1051
665 1051
666 1051
667 1051
668 1051
669 1051
670 1051
671 1051
672 1051
673 1051
674 1051
675 1051
676 1051
677 1051
678 1051
679 1051
680 1051
681 1051
682 1051
683 1051
684 1051
685 1051
686 1051
687 1051
688 1051
689 1051
690 1051
691 1051
692 1051
693 1051
694 1051
695 1051
696 1051
697 1051
698 1051
699 1051
700 1051
701 1051
702 1051
703 1051
704 1051
705 1051
706 1051
707 1051
708 1051
709 1051
710 1051
711 1051
712 1051
713 1051
714 1051
715 1051
716 1051
717 1051
718 1051
719 1051
720 1051
721 1051
722 1051
723 1051
724 1051
725 1051
726 1051
727 1051
728 1051
729 1051
730 1051
731 1051
732 1051
733 1051
734 1051
735 1051
736 1051
737 1051
738 1051
739 1051
740 1051
741 1051
742 1051
743 1051
744 1051
745 1051
746 1051
747 1051
748 1051
749 1051
750 1051
751 1051
752 1051
753 1051
754 1051
755 1051
756 1051
757 1051
758 1051
759 1051
760 1051
761 1051
762 1051
763 1051
764 1051
765 1051
766 1051
767 1051
768 1051
769 1051
770 1051
771 1051
772 1051
773 1051
774 1051
775 1051
776 1051
777 1051
778 1051
779 1051
780 1051
781 1051
782 1051
783 1051
784 1051
785 1051
786 1051
787 1051
788 1051
789 1051
790 1051
791 1051
792 1051
793 1051
794 1051
795 1051
796 1051
797 1051
798 1051
799 1051
800 1051
801 1051
802 1051
803 1051
804 1051
805 1051
806 1051
807 1051
808 1051
809 1051
810 1051
811 1051
812 1051
813 1051
814 1051
815 1051
816 1051
817 1051
818 1051
819 1051
820 1051
821 1051
822 1051
823 1051
824 1051
825 1051
826 1051
827 1051
828 1051
829 1051
830 1051
831 1051
832 1051
833 1051
834 1051
835 1051
836 1051
837 1051
838 1051
839 1051
840 1051
841 1051
842 1051
843 1051
844 1051
845 1051
846 1051
847 1051
848 1051
849 1051
850 1051
851 1051
852 1051
853 1051
854 1051
855 1051
856 1051
857 1051
858 1051
859 1051
860 1051
861 1051
862 1051
863 1051
864 1051
865 1051
866 1051
867 1051
868 1051
869 1051
870 1051
871 1051
872 1051
873 1051
874 1051
875 1051
876 1051
877 1051
878 1051
879 1051
880 1051
881 1051
882 1051
883 1051
884 1051
885 1051
886 1051
887 1051
888 1051
889 1051
890 1051
891 1051
892 1051
893 1051
894 1051
895 1051
896 1051
897 1051
898 1051
899 1051
900 1051
901 1051
902 1051
903 1051
904 1051
905 1051
906 1051
907 1051
908 1051
909 1051
910 1051
911 1051
912 1051
913 1051
914 1051
915 1051
916 1051
917 1051
918 1051
919 1051
920 1051
921 1051
922 1051
923 1051
924 1051
925 1051
926 1051
927 1051
928 1051
929 1051
930 1051
931 1051
932 1051
933 1051
934 1051
935 1051
936 1051
937 1051
938 1051
939 1051
940 1051
941 1051
942 1051
943 1051
944 1051
945 1051
946 1051
947 1051
948 1051
949 1051
950 1051
951 1051
952 1051
953 1051
954 1051
955 1051
956 1051
957 1051
958 1051
959 1051
960 1051
961 1051
962 1051
963 1051
964 1051
965 1051
966 1051
967 1051
968 1051
969 1051
970 1051
971 1051
972 1051
973 1051
974 1051
975 1051
976 1051
977 1051
978 1051
979 1051
980 1051
981 1051
982 1051
983 1051
984 1051
985 1051
986 1051
987 1051
988 1051
989 1051
990 1051
991 1051
992 1051
993 1051
994 1051
995 1051
996 1051
997 1051
998 1051
999 1051
Best: [[21,26,11,16,28,17],
       [31,25,6,30,5,12,10,23],
       [27,22,32,20,18,3,4,7],
       [15,19,9,29,24,14,8,2,13]], fitness: 1051
